Total Value: 245972
Total Weight: 245972
Packed Items: [0, 1, 2, 3, 4, 5, 6, 7, 8, 9, 10, 11, 12, 13, 14, 15, 16, 17, 18, 19, 20, 21, 22, 23, 24, 25, 26, 27, 28, 29, 30, 31, 32, 33, 34, 35, 36, 37, 38, 39, 40, 41, 42, 43, 44, 45, 46, 47, 48, 49, 50, 51, 52, 53, 54, 55, 56, 57, 58, 59, 60, 61, 62, 63, 64, 65, 66, 67, 68, 69, 70, 71, 72, 73, 74, 75, 76, 77, 78, 79, 80, 81, 82, 83, 84, 85, 86, 87, 88, 89, 90, 91, 92, 93, 94, 95, 96, 97, 98, 99, 100, 101, 102, 103, 104, 105, 106, 107, 108, 109, 110, 111, 112, 113, 114, 115, 116, 117, 118, 119, 120, 121, 122, 123, 124, 125, 126, 127, 128, 129, 130, 131, 132, 133, 134, 135, 136, 137, 138, 139, 140, 141, 142, 143, 144, 145, 146, 147, 148, 149, 150, 151, 152, 153, 154, 155, 156, 157, 158, 159, 160, 161, 162, 163, 164, 165, 166, 167, 168, 169, 170, 171, 172, 173, 174, 175, 176, 177, 178, 179, 180, 181, 182, 183, 184, 185, 186, 187, 188, 189, 190, 191, 192, 193, 194, 195, 196, 197, 198, 199, 200, 201, 202, 203, 204, 205, 206, 207, 208, 209, 210, 211, 212, 213, 214, 215, 216, 217, 218, 219, 221, 222, 223, 224, 225, 226, 227, 228, 229, 230, 231, 232, 233, 234, 235, 236, 237, 238, 239, 240, 241, 242, 243, 244, 245, 246, 247, 248, 249, 250, 251, 252, 253, 254, 255, 256, 257, 258, 259, 260, 261, 262, 263, 264, 265, 266, 267, 268, 269, 270, 271, 272, 273, 274, 275, 276, 277, 278, 279, 280, 281, 282, 283, 284, 285, 286, 287, 288, 289, 290, 291, 292, 293, 294, 295, 296, 297, 298, 299, 300, 301, 302, 303, 304, 305, 306, 307, 308, 309, 310, 311, 312, 313, 314, 315, 316, 317, 318, 319, 320, 321, 322, 323, 324, 325, 326, 327, 328, 329, 330, 331, 332, 333, 334, 335, 336, 337, 338, 339, 340, 341, 342, 343, 344, 345, 346, 347, 348, 349, 350, 351, 352, 353, 354, 355, 356, 357, 358, 359, 360, 361, 362, 363, 364, 365, 366, 367, 368, 369, 370, 371, 372, 373, 374, 375, 376, 377, 378, 379, 380, 381, 382, 383, 384, 385, 386, 387, 388, 389, 390, 391, 392, 393, 394, 395, 396, 397, 398, 399, 400, 401, 402, 403, 404, 405, 406, 407, 408, 409, 410, 411, 412, 413, 414, 415, 416, 417, 418, 419, 420, 421, 422, 423, 424, 425, 426, 427, 428, 429, 430, 431, 432, 433, 434, 435, 436, 437, 438, 439, 440, 441, 442, 443, 444, 445, 446, 447, 448, 449, 450, 451, 452, 453, 454, 455, 456, 457, 458, 459, 460, 461, 462, 463, 464, 465, 466, 467, 468, 469, 470, 471, 472, 473, 474, 475, 476, 477]
Packed Weights: [845, 758, 421, 259, 512, 405, 784, 304, 477, 584, 909, 505, 282, 756, 619, 251, 910, 983, 811, 903, 311, 730, 899, 684, 473, 101, 435, 611, 914, 967, 478, 866, 261, 806, 549, 15, 720, 399, 825, 669, 2, 494, 868, 244, 326, 871, 192, 568, 239, 968, 804, 448, 81, 321, 508, 933, 110, 552, 707, 548, 815, 541, 964, 604, 588, 445, 597, 385, 576, 291, 190, 187, 613, 657, 477, 90, 758, 877, 924, 843, 899, 924, 541, 392, 706, 276, 812, 850, 896, 590, 950, 580, 451, 661, 997, 917, 794, 83, 613, 487, 631, 846, 244, 732, 118, 221, 795, 333, 816, 101, 147, 698, 46, 574, 911, 535, 681, 27, 635, 607, 576, 392, 371, 981, 37, 22, 962, 185, 124, 211, 801, 937, 23, 426, 102, 260, 221, 647, 351, 181, 504, 40, 101, 989, 200, 359, 732, 839, 919, 170, 673, 967, 59, 677, 846, 343, 251, 597, 443, 175, 472, 410, 570, 509, 312, 358, 838, 251, 561, 13, 742, 336, 46, 281, 241, 954, 353, 288, 360, 947, 634, 622, 716, 389, 415, 651, 2, 193, 335, 240, 638, 379, 876, 569, 415, 403, 702, 419, 663, 47, 446, 260, 158, 528, 488, 562, 756, 884, 495, 313, 467, 810, 876, 813, 189, 1000, 634, 84, 726, 987, 679, 317, 214, 718, 3, 823, 529, 98, 119, 650, 874, 280, 979, 101, 854, 397, 82, 275, 453, 793, 862, 134, 521, 651, 348, 872, 279, 19, 41, 681, 559, 947, 939, 910, 43, 750, 702, 656, 713, 903, 641, 373, 538, 208, 588, 9, 152, 334, 790, 719, 339, 621, 42, 164, 982, 290, 395, 549, 294, 479, 240, 49, 180, 524, 71, 404, 329, 415, 100, 909, 475, 841, 977, 344, 480, 700, 427, 302, 735, 895, 920, 627, 376, 975, 639, 66, 85, 750, 62, 8, 394, 520, 449, 489, 585, 680, 424, 369, 989, 261, 778, 432, 359, 64, 864, 703, 904, 452, 677, 119, 398, 208, 43, 948, 216, 147, 198, 379, 547, 152, 989, 983, 149, 406, 680, 878, 496, 918, 323, 499, 499, 671, 202, 610, 219, 341, 963, 900, 819, 36, 149, 257, 785, 843, 583, 719, 808, 67, 85, 869, 40, 226, 41, 16, 844, 331, 161, 149, 657, 969, 505, 902, 503, 574, 679, 806, 758, 991, 747, 906, 207, 536, 599, 826, 483, 792, 389, 587, 852, 799, 657, 1, 182, 507, 255, 66, 860, 943, 303, 409, 811, 63, 641, 128, 288, 830, 56, 36, 418, 492, 864, 718, 674, 152, 987, 412, 612, 387, 48, 471, 152, 33, 618, 630, 106, 550, 347, 384, 777, 491, 882, 611, 468, 633, 338, 125, 683, 623, 789, 128, 912, 800, 917, 873, 682, 811, 520, 786, 190, 783, 445, 757, 456, 790, 76, 45, 935, 487, 902, 945, 667, 572, 216, 94, 820, 889, 780]
Total Time: 0.011580228805541992 seconds
